DATASET = "thpack8";
INSTANCE = "012";

WIDTH = 2400;
HEIGHT = 1000;
LENGTH = 3200;

NO_OF_SHAPES = 6;
size = [|
  900,275,200 |
  400,350,275 |
  1200,300,250 |
  500,375,275 |
  800,400,200 |
  600,300,225 |
|];

verticality = [|
  0,0,1 |
  0,0,1 |
  0,0,1 |
  0,0,1 |
  0,0,1 |
  0,0,1 |
|];

box_count = [
  10,
  33,
  10,
  27,
  15,
  25,
];
